* ENCODING=ISO-8859-1
NAME          CPLEX
ROWS
 N  obj1    
 G  c1      
 G  c2      
 G  c3      
 G  c4      
 G  c5      
 G  c6      
 G  c7      
 G  c8      
 G  c9      
 G  c10     
 G  c11     
 G  c12     
 G  c13     
 G  c14     
 G  c15     
 G  c16     
 G  c17     
 G  c18     
 G  c19     
 G  c20     
 G  c21     
 G  c22     
 G  c23     
 G  c24     
 G  c25     
 G  c26     
 G  c27     
 G  c28     
 G  c29     
 G  c30     
COLUMNS
    MARK0000  'MARKER'                 'INTORG'
    x1        obj1                            1
    x1        c8                            544
    x1        c15                           568
    x1        c16                           477
    x1        c20                           919
    x1        c24                           934
    x1        c26                           941
    x2        obj1                            1
    x2        c7                            558
    x2        c29                           818
    x3        obj1                            1
    x3        c3                            921
    x3        c4                            430
    x3        c6                            705
    x3        c17                           395
    x3        c22                           490
    x3        c29                           439
    x4        obj1                            1
    x4        c14                           300
    x4        c21                           464
    x5        obj1                            1
    x5        c8                            513
    x5        c10                           616
    x6        obj1                            1
    x6        c12                           608
    x6        c24                           991
    x6        c28                           742
    x7        obj1                            1
    x7        c6                            318
    x7        c29                           125
    x8        obj1                            1
    x8        c8                            307
    x8        c18                           964
    x8        c26                           951
    x9        obj1                            1
    x9        c8                            840
    x9        c25                           674
    x10       obj1                            1
    x10       c15                           862
    x10       c17                           697
    x10       c19                           827
    x10       c26                           979
    x11       obj1                            1
    x11       c14                           894
    x11       c22                           824
    x11       c27                           302
    x12       obj1                            1
    x12       c2                            933
    x12       c9                            505
    x12       c10                           843
    x12       c28                           211
    x13       obj1                            1
    x13       c7                            195
    x13       c8                            989
    x13       c22                           586
    x13       c27                           804
    x14       obj1                            1
    x14       c14                           487
    x14       c18                           440
    x14       c22                           748
    x14       c23                           683
    x14       c28                           279
    x15       obj1                            1
    x15       c26                           699
    x16       obj1                            1
    x16       c9                            386
    x16       c23                           775
    x17       obj1                            1
    x17       c17                           285
    x17       c19                           538
    x18       obj1                            1
    x18       c3                            327
    x18       c19                           584
    x18       c21                           406
    x18       c26                           868
    x19       obj1                            1
    x19       c6                            635
    x19       c16                           799
    x19       c17                           293
    x20       obj1                            1
    x20       c11                           149
    x20       c13                           154
    x20       c17                           964
    x21       obj1                            1
    x21       c5                            308
    x21       c12                           131
    x21       c24                           830
    x21       c26                           767
    x21       c30                           395
    x22       obj1                            1
    x23       obj1                            1
    x24       obj1                            1
    x24       c3                            493
    x24       c9                            705
    x24       c12                           743
    x24       c18                           913
    x24       c23                           687
    x25       obj1                            1
    x25       c3                            741
    x25       c13                           625
    x25       c15                           723
    x25       c18                           873
    x25       c27                           469
    x25       c28                           814
    x25       c29                           259
    x26       obj1                            1
    x26       c2                            672
    x27       obj1                            1
    x27       c3                            295
    x27       c5                            920
    x27       c6                            493
    x27       c8                            365
    x27       c20                           164
    x27       c21                           920
    x28       obj1                            1
    x28       c11                           910
    x28       c15                           981
    x28       c27                           297
    x29       obj1                            1
    x29       c13                           464
    x29       c17                           415
    x30       obj1                            1
    x30       c7                            658
    x30       c14                           741
    x30       c20                           471
    x30       c24                           162
    x31       obj1                            1
    x31       c15                           774
    x31       c17                           578
    x31       c27                           355
    x32       obj1                            1
    x32       c2                            380
    x32       c13                           444
    x33       obj1                            1
    x34       obj1                            1
    x34       c16                           763
    x34       c22                           230
    x35       obj1                            1
    x35       c3                            194
    x35       c16                           836
    x35       c25                           244
    x35       c29                           227
    x35       c30                           459
    x36       obj1                            1
    x36       c19                           547
    x37       obj1                            1
    x37       c11                           222
    x37       c14                           636
    x38       obj1                            1
    x38       c4                            238
    x38       c5                            318
    x38       c23                           518
    x39       obj1                            1
    x39       c8                            600
    x39       c24                           174
    x40       obj1                            1
    x41       obj1                            1
    x41       c1                            131
    x41       c3                            743
    x41       c4                            618
    x41       c13                           457
    x41       c29                           742
    x42       obj1                            1
    x42       c13                           838
    x42       c22                           423
    x43       obj1                            1
    x43       c21                           963
    x44       obj1                            1
    x44       c3                            115
    x44       c6                            123
    x44       c10                           343
    x44       c14                           294
    x44       c15                           396
    x45       obj1                            1
    x45       c1                            208
    x45       c4                            372
    x45       c6                            129
    x45       c11                           558
    x45       c15                           886
    x45       c22                           633
    x45       c24                           336
    x46       obj1                            1
    x46       c10                           902
    x46       c13                           445
    x46       c16                           541
    x46       c29                           387
    x47       obj1                            1
    x47       c12                           967
    x47       c16                           664
    x47       c24                           164
    x48       obj1                            1
    x48       c4                            185
    x48       c5                            175
    x48       c12                           639
    x48       c17                           796
    x48       c22                           196
    x49       obj1                            1
    x49       c12                           784
    x49       c20                           255
    x49       c23                           759
    x49       c24                           966
    x50       obj1                            1
    x50       c15                           332
    x50       c20                           795
    x50       c24                           478
    x50       c27                           138
    x51       obj1                            1
    x51       c11                           569
    x51       c19                           871
    x52       obj1                            1
    x52       c6                            329
    x52       c9                            362
    x53       obj1                            1
    x53       c1                            659
    x53       c4                            282
    x53       c14                           586
    x54       obj1                            1
    x54       c13                           840
    x54       c15                           485
    x55       obj1                            1
    x55       c12                           860
    x55       c25                           893
    x55       c28                           899
    x56       obj1                            1
    x56       c22                           409
    x57       obj1                            1
    x57       c3                            592
    x57       c6                            567
    x57       c12                           665
    x57       c14                           135
    x58       obj1                            1
    x59       obj1                            1
    x60       obj1                            1
    x60       c9                            791
    x60       c17                           665
    x60       c19                           333
    x60       c20                           173
    x60       c27                           435
    x60       c30                           410
    MARK0001  'MARKER'                 'INTEND'
RHS
    rhs       c1                            499
    rhs       c2                            993
    rhs       c3                           2211
    rhs       c4                           1063
    rhs       c5                            861
    rhs       c6                           1650
    rhs       c7                            706
    rhs       c8                           2079
    rhs       c9                           1375
    rhs       c10                          1352
    rhs       c11                          1204
    rhs       c12                          2699
    rhs       c13                          2134
    rhs       c14                          2037
    rhs       c15                          3004
    rhs       c16                          2040
    rhs       c17                          2544
    rhs       c18                          1595
    rhs       c19                          1850
    rhs       c20                          1389
    rhs       c21                          1377
    rhs       c22                          2270
    rhs       c23                          1711
    rhs       c24                          2518
    rhs       c25                           906
    rhs       c26                          2603
    rhs       c27                          1400
    rhs       c28                          1473
    rhs       c29                          1499
    rhs       c30                           632
BOUNDS
 LI bnd       x1        0
 LI bnd       x2        0
 LI bnd       x3        0
 LI bnd       x4        0
 LI bnd       x5        0
 LI bnd       x6        0
 LI bnd       x7        0
 LI bnd       x8        0
 LI bnd       x9        0
 LI bnd       x10       0
 LI bnd       x11       0
 LI bnd       x12       0
 LI bnd       x13       0
 LI bnd       x14       0
 LI bnd       x15       0
 LI bnd       x16       0
 LI bnd       x17       0
 LI bnd       x18       0
 LI bnd       x19       0
 LI bnd       x20       0
 LI bnd       x21       0
 LI bnd       x22       0
 LI bnd       x23       0
 LI bnd       x24       0
 LI bnd       x25       0
 LI bnd       x26       0
 LI bnd       x27       0
 LI bnd       x28       0
 LI bnd       x29       0
 LI bnd       x30       0
 LI bnd       x31       0
 LI bnd       x32       0
 LI bnd       x33       0
 LI bnd       x34       0
 LI bnd       x35       0
 LI bnd       x36       0
 LI bnd       x37       0
 LI bnd       x38       0
 LI bnd       x39       0
 LI bnd       x40       0
 LI bnd       x41       0
 LI bnd       x42       0
 LI bnd       x43       0
 LI bnd       x44       0
 LI bnd       x45       0
 LI bnd       x46       0
 LI bnd       x47       0
 LI bnd       x48       0
 LI bnd       x49       0
 LI bnd       x50       0
 LI bnd       x51       0
 LI bnd       x52       0
 LI bnd       x53       0
 LI bnd       x54       0
 LI bnd       x55       0
 LI bnd       x56       0
 LI bnd       x57       0
 LI bnd       x58       0
 LI bnd       x59       0
 LI bnd       x60       0
ENDATA
